
Gurobi 6.5.2 (win64) logging started 07/23/16 02:33:28


Gurobi 6.5.2 (win64) logging started 07/23/16 02:33:28

Optimize a model with 5678 rows, 520 columns and 11824 nonzeros
Coefficient statistics:
  Matrix range    [1e+00, 1e+00]
  Objective range [7e+00, 4e+01]
  Bounds range    [1e+00, 1e+00]
  RHS range       [1e+00, 1e+00]
Found heuristic solution: objective -0
Presolve removed 5542 rows and 37 columns
Presolve time: 0.01s
Presolved: 136 rows, 483 columns, 1472 nonzeros
Variable types: 0 continuous, 483 integer (483 binary)

Root relaxation: objective 4.230000e+02, 75 iterations, 0.00 seconds

    Nodes    |    Current Node    |     Objective Bounds      |     Work
 Expl Unexpl |  Obj  Depth IntInf | Incumbent    BestBd   Gap | It/Node Time

*    0     0               0     423.0000000  423.00000  0.00%     -    0s

Explored 0 nodes (75 simplex iterations) in 0.01 seconds
Thread count was 8 (of 8 available processors)

Optimal solution found (tolerance 1.00e-04)
Best objective 4.230000000000e+02, best bound 4.230000000000e+02, gap 0.0%

Wrote requested result file 'H2\instance5\\Results5.lp'

